50
12291

465 905
376 253
370 77
767 623
73 788
286 225
713 376
624 572
327 969
310 915
951 9
187 31
656 995
325 9
831 16
65 906
382 607
856 502
584 287
54 318
89 786
317 688
730 621
451 148
869 899
590 37
533 717
730 391
651 553
640 877
183 541
882 712
90 206
491 642
995 25
751 777
837 439
961 476
527 191
911 617
208 514
746 195
86 660
421 499
920 612
948 374
662 841
723 192
285 249
612 145
